c Créé aléatoirement par notre superbe programme de génération de graphe
c Il contient 18 sommets et 32 arêtes distinctes.
c Passez le bonjour à MM Blot et Hirschkoff
p edge 18 32
e 1 17
e 1 7
e 1 9
e 1 5
e 1 11
e 1 8
e 1 12
e 1 3
e 1 4
e 2 9
e 3 18
e 3 17
e 3 12
e 4 14
e 4 5
e 5 8
e 5 16
e 6 10
e 6 17
e 7 17
e 8 18
e 8 9
e 9 12
e 9 11
e 10 12
e 10 11
e 11 15
e 12 14
e 12 16
e 14 16
e 16 18
e 17 18
